
Gurobi 9.1.2 (win64, Java) logging started Fri Nov 12 00:56:26 2021

Academic license - for non-commercial use only - expires 2022-10-30
Gurobi Optimizer version 9.1.2 build v9.1.2rc0 (win64)
Thread count: 6 physical cores, 12 logical processors, using up to 12 threads
Optimize a model with 50 rows, 400 columns and 800 nonzeros
Model fingerprint: 0x5ad01f6a
Variable types: 0 continuous, 400 integer (400 binary)
Coefficient statistics:
  Matrix range     [1e+00, 1e+03]
  Objective range  [5e+01, 9e+02]
  Bounds range     [1e+00, 1e+00]
  RHS range        [1e+00, 2e+03]
Found heuristic solution: objective 10769.000000
Presolve removed 0 rows and 63 columns
Presolve time: 0.00s
Presolved: 50 rows, 337 columns, 674 nonzeros
Variable types: 0 continuous, 337 integer (337 binary)
Presolved: 50 rows, 337 columns, 674 nonzeros


Root relaxation: objective 1.208045e+04, 129 iterations, 0.00 seconds

    Nodes    |    Current Node    |     Objective Bounds      |     Work
 Expl Unexpl |  Obj  Depth IntInf | Incumbent    BestBd   Gap | It/Node Time

     0     0 12080.4511    0   13 10769.0000 12080.4511  12.2%     -    0s
H    0     0                    11391.000000 12080.4511  6.05%     -    0s
H    0     0                    11512.000000 12080.4511  4.94%     -    0s
     0     0 12080.1089    0   22 11512.0000 12080.1089  4.93%     -    0s
H    0     0                    11529.000000 12080.1089  4.78%     -    0s
     0     0 12080.1089    0   21 11529.0000 12080.1089  4.78%     -    0s
H    0     0                    11657.000000 12080.1089  3.63%     -    0s
     0     0 12067.7979    0   35 11657.0000 12067.7979  3.52%     -    0s
H    0     0                    11709.000000 12067.7979  3.06%     -    0s
     0     0 12067.4856    0   29 11709.0000 12067.4856  3.06%     -    0s
     0     0 12067.4856    0   30 11709.0000 12067.4856  3.06%     -    0s
H    0     0                    11837.000000 12067.4856  1.95%     -    0s
H    0     0                    11853.000000 12067.4856  1.81%     -    0s
     0     0 12066.4935    0   42 11853.0000 12066.4935  1.80%     -    0s
     0     0 12066.1267    0   44 11853.0000 12066.1267  1.80%     -    0s
     0     0 12066.0981    0   46 11853.0000 12066.0981  1.80%     -    0s
     0     0 12066.0598    0   56 11853.0000 12066.0598  1.80%     -    0s
     0     0 12066.0449    0   50 11853.0000 12066.0449  1.80%     -    0s
     0     0 12066.0417    0   60 11853.0000 12066.0417  1.80%     -    0s
     0     0 12065.3016    0   43 11853.0000 12065.3016  1.79%     -    0s
     0     0 12065.1763    0   47 11853.0000 12065.1763  1.79%     -    0s
     0     0 12065.1651    0   55 11853.0000 12065.1651  1.79%     -    0s
     0     0 12063.2144    0   69 11853.0000 12063.2144  1.77%     -    0s
     0     0 12062.6108    0   67 11853.0000 12062.6108  1.77%     -    0s
     0     0 12062.5849    0   71 11853.0000 12062.5849  1.77%     -    0s
     0     0 12062.5849    0   72 11853.0000 12062.5849  1.77%     -    0s
     0     0 12060.4085    0   75 11853.0000 12060.4085  1.75%     -    0s
     0     0 12059.9513    0   68 11853.0000 12059.9513  1.75%     -    0s
     0     0 12059.6334    0   73 11853.0000 12059.6334  1.74%     -    0s
     0     0 12057.9645    0   80 11853.0000 12057.9645  1.73%     -    0s
     0     0 12057.8570    0   80 11853.0000 12057.8570  1.73%     -    0s
H    0     0                    11868.000000 12057.8570  1.60%     -    0s
     0     0 12055.2032    0   80 11868.0000 12055.2032  1.58%     -    0s
     0     0 12054.8425    0   85 11868.0000 12054.8425  1.57%     -    0s
     0     0 12054.5967    0   87 11868.0000 12054.5967  1.57%     -    0s
     0     0 12053.6378    0   88 11868.0000 12053.6378  1.56%     -    1s
     0     0 12053.5874    0   90 11868.0000 12053.5874  1.56%     -    1s
     0     0 12052.2298    0   89 11868.0000 12052.2298  1.55%     -    1s
     0     0 12052.1440    0   93 11868.0000 12052.1440  1.55%     -    1s
     0     0 12051.7500    0   92 11868.0000 12051.7500  1.55%     -    1s
     0     0 12051.7500    0   92 11868.0000 12051.7500  1.55%     -    1s
H    0     0                    12000.000000 12051.7500  0.43%     -    1s
     0     0 12051.7500    0   15 12000.0000 12051.7500  0.43%     -    1s
     0     0 12051.7500    0   50 12000.0000 12051.7500  0.43%     -    1s
     0     0 12043.6076    0   59 12000.0000 12043.6076  0.36%     -    1s
     0     0 12043.6076    0   77 12000.0000 12043.6076  0.36%     -    1s
     0     0 12043.6076    0   86 12000.0000 12043.6076  0.36%     -    1s
     0     0 12043.6076    0   89 12000.0000 12043.6076  0.36%     -    1s
     0     0 12043.6076    0   89 12000.0000 12043.6076  0.36%     -    1s
     0     0 12039.4632    0   86 12000.0000 12039.4632  0.33%     -    1s
     0     0 12039.3841    0   89 12000.0000 12039.3841  0.33%     -    1s
     0     0 12038.4935    0   82 12000.0000 12038.4935  0.32%     -    1s
     0     0 12038.4026    0   84 12000.0000 12038.4026  0.32%     -    1s
     0     0 12037.5383    0   87 12000.0000 12037.5383  0.31%     -    1s
     0     0 12037.5383    0   87 12000.0000 12037.5383  0.31%     -    1s
     0     2 12037.1116    0   87 12000.0000 12037.1116  0.31%     -    1s
  4682  1797 12023.5771   32   60 12000.0000 12027.7647  0.23%  45.2    5s
 13895  5075 12011.7083   33   64 12000.0000 12023.4066  0.20%  43.4   10s
 31543  9742 12012.1904   39   69 12000.0000 12019.4965  0.16%  41.1   15s
 37153 10409 12018.5889   26  114 12000.0000 12018.5889  0.15%  40.6   20s
 44525 11242 12006.8583   54   54 12000.0000 12018.5889  0.15%  41.5   25s
 61019 10774     cutoff   45      12000.0000 12013.4319  0.11%  41.2   30s
 75683 10878 12004.8335   56   56 12000.0000 12011.5879  0.10%  40.3   35s
 91680 12064 12003.9313   62   48 12000.0000 12009.8831  0.08%  39.4   40s
 109362 10969 12003.8851   52   61 12000.0000 12008.0128  0.07%  38.2   45s
 141250  1386 12001.8877   64   13 12000.0000 12003.5740  0.03%  35.6   50s

Cutting planes:
  Gomory: 12
  Cover: 74
  Clique: 13
  MIR: 213
  StrongCG: 146
  Flow cover: 32
  Inf proof: 10
  Zero half: 4
  RLT: 5

Explored 147660 nodes (5144473 simplex iterations) in 50.71 seconds
Thread count was 12 (of 12 available processors)

Solution count 10: 12000 11868 11853 ... 10769

Optimal solution found (tolerance 1.00e-12)
Best objective 1.200000000000e+04, best bound 1.200000000000e+04, gap 0.0000%
